45
100
80	1
79	2
78	2
77	1
76	3
75	3
74	3
73	5
72	4
71	1
70	5
68	2
67	4
66	1
63	1
61	3
60	1
59	4
58	2
57	3
56	1
55	4
54	2
53	3
52	1
51	3
50	2
48	2
46	1
44	2
43	3
41	1
40	3
39	1
38	1
37	1
34	2
32	1
30	1
28	5
27	2
26	3
25	1
23	1
20	2
